40
1 0 2
2 0 5
2 1 8
3 0 5
3 1 8
4 1 9
4 2 1
4 3 6
5 1 8
5 2 7
5 4 9
6 2 6
6 3 10
7 1 7
7 3 9
7 4 9
7 6 3
8 0 5
8 1 7
8 3 2
8 4 5
8 7 5
9 0 6
9 1 5
9 2 7
9 3 9
9 4 2
9 5 1
9 6 6
9 8 9
10 0 6
10 1 2
10 2 5
10 4 6
10 6 10
10 9 6
11 0 2
11 2 7
11 3 6
11 8 8
11 9 1
12 0 3
12 1 9
12 2 7
12 3 7
12 5 8
12 7 6
12 8 6
12 9 5
12 10 9
13 0 9
13 1 8
13 2 4
13 4 9
13 6 10
13 7 6
13 9 8
13 10 3
13 11 6
13 12 2
14 0 8
14 2 8
14 4 5
14 5 5
14 7 8
14 9 3
14 11 3
14 12 9
14 13 2
15 0 8
15 1 3
15 6 3
15 8 8
15 9 1
15 11 10
15 12 4
15 13 7
15 14 6
16 1 6
16 2 10
16 3 1
16 4 3
16 5 1
16 6 8
16 9 1
16 10 5
16 11 2
16 13 7
16 14 3
16 15 5
17 0 4
17 2 8
17 3 1
17 4 4
17 5 3
17 6 10
17 7 10
17 8 3
17 9 5
17 11 3
17 14 7
17 15 4
17 16 4
18 0 1
18 2 6
18 3 8
18 5 1
18 9 1
18 10 3
18 12 3
18 13 8
18 14 8
18 16 2
19 2 3
19 3 6
19 5 5
19 6 9
19 8 7
19 10 10
19 12 8
19 13 9
19 14 2
19 15 8
19 16 10
19 17 2
20 0 1
20 1 9
20 2 3
20 3 8
20 4 1
20 6 2
20 7 3
20 8 1
20 10 10
20 11 1
20 12 5
20 13 6
20 14 9
20 15 6
20 17 1
20 18 1
21 0 5
21 2 3
21 3 10
21 4 9
21 5 8
21 6 5
21 7 5
21 10 8
21 11 4
21 13 4
21 14 6
21 15 2
21 17 4
21 20 8
22 0 6
22 3 8
22 5 3
22 7 1
22 10 1
22 11 7
22 12 6
22 14 10
22 16 3
22 17 10
22 18 8
22 20 5
22 21 4
23 0 2
23 1 10
23 2 6
23 3 4
23 4 9
23 5 2
23 6 6
23 7 4
23 11 8
23 13 2
23 14 1
23 15 9
23 16 6
23 18 6
23 19 1
23 20 8
23 21 8
23 22 3
24 0 8
24 1 9
24 2 3
24 3 1
24 4 2
24 6 8
24 8 6
24 9 9
24 10 3
24 11 7
24 12 9
24 14 9
24 15 4
24 16 1
24 17 3
24 19 5
24 21 4
24 22 6
25 0 2
25 1 10
25 4 5
25 5 9
25 6 8
25 7 3
25 8 7
25 9 2
25 10 9
25 13 10
25 14 10
25 16 1
25 19 1
25 20 5
25 21 7
25 22 8
25 24 5
26 0 9
26 1 4
26 3 1
26 5 2
26 6 6
26 7 8
26 8 10
26 12 2
26 13 7
26 14 5
26 15 3
26 16 9
26 17 7
26 18 6
26 19 2
26 20 1
26 21 7
26 23 6
26 24 3
26 25 3
27 2 8
27 3 5
27 6 3
27 7 1
27 8 9
27 11 1
27 12 10
27 13 1
27 14 1
27 16 1
27 17 4
27 18 5
27 20 2
27 22 5
27 23 8
27 25 4
27 26 1
28 0 4
28 2 10
28 4 7
28 6 9
28 8 4
28 9 2
28 11 10
28 13 9
28 14 6
28 15 5
28 16 9
28 17 8
28 19 9
28 20 9
28 21 8
28 27 8
29 0 4
29 2 2
29 3 2
29 4 8
29 5 1
29 7 5
29 8 8
29 10 8
29 11 8
29 12 7
29 13 8
29 15 3
29 16 7
29 18 6
29 19 8
29 20 4
29 21 8
29 23 5
29 25 5
29 26 2
29 28 5
30 0 5
30 1 4
30 2 2
30 3 1
30 4 7
30 6 1
30 8 9
30 9 5
30 10 2
30 11 4
30 12 7
30 15 4
30 16 8
30 17 4
30 19 8
30 20 1
30 21 5
30 23 5
30 27 5
30 28 1
30 29 10
31 0 1
31 2 8
31 3 9
31 5 10
31 6 5
31 7 9
31 9 7
31 10 9
31 11 2
31 12 3
31 13 10
31 14 1
31 15 3
31 16 7
31 18 7
31 19 8
31 20 9
31 21 7
31 24 10
31 25 2
31 26 8
31 28 5
31 29 9
31 30 10
32 0 6
32 1 9
32 3 4
32 4 4
32 5 10
32 6 8
32 7 10
32 9 10
32 10 1
32 11 2
32 12 4
32 13 6
32 14 9
32 15 6
32 17 3
32 19 4
32 21 2
32 22 10
32 23 6
32 24 10
32 25 2
32 27 3
32 28 7
32 30 3
32 31 5
33 0 1
33 1 3
33 3 2
33 4 2
33 6 2
33 7 3
33 10 7
33 12 2
33 13 8
33 14 4
33 16 2
33 18 7
33 20 7
33 22 3
33 23 10
33 24 4
33 25 5
33 27 8
33 28 6
33 29 8
33 31 4
33 32 2
34 0 7
34 3 6
34 5 10
34 6 5
34 7 9
34 8 10
34 9 7
34 11 2
34 12 2
34 13 7
34 14 2
34 17 9
34 18 2
34 20 7
34 22 2
34 23 9
34 24 2
34 25 8
34 26 9
34 27 1
34 29 5
34 30 7
34 32 5
35 0 4
35 1 1
35 3 8
35 4 4
35 5 2
35 6 1
35 7 4
35 8 8
35 11 8
35 14 1
35 16 3
35 18 1
35 19 5
35 20 9
35 21 9
35 24 10
35 25 6
35 27 7
35 29 4
35 31 5
35 33 8
36 0 1
36 1 8
36 2 6
36 3 4
36 4 4
36 7 5
36 8 6
36 10 6
36 11 4
36 13 6
36 15 10
36 16 7
36 18 3
36 19 6
36 20 9
36 21 1
36 22 6
36 23 9
36 26 1
36 27 6
36 28 1
36 29 10
36 31 8
36 32 9
36 33 4
36 34 2
36 35 8
37 0 5
37 1 1
37 4 8
37 5 9
37 6 9
37 7 3
37 8 7
37 9 7
37 10 3
37 12 1
37 13 2
37 14 10
37 16 2
37 17 10
37 18 10
37 20 4
37 22 8
37 23 3
37 24 5
37 26 8
37 28 1
37 29 7
37 31 1
37 32 6
37 33 3
37 35 7
37 36 8
38 0 3
38 1 1
38 4 5
38 5 2
38 6 9
38 8 6
38 9 2
38 10 2
38 11 2
38 12 3
38 17 6
38 19 6
38 20 8
38 22 8
38 23 10
38 24 8
38 25 5
38 26 9
38 27 4
38 30 2
38 31 5
38 32 6
38 33 10
38 34 8
38 37 3
39 1 6
39 2 8
39 3 10
39 4 8
39 5 1
39 7 7
39 10 9
39 11 8
39 13 7
39 16 2
39 20 5
39 21 10
39 22 10
39 23 4
39 24 1
39 25 6
39 27 3
39 29 1
39 32 5
39 34 2
39 35 6
39 36 4
39 37 8
39 38 2
